
Gurobi 6.5.2 (win64) logging started 07/24/16 17:26:51


Gurobi 6.5.2 (win64) logging started 07/24/16 17:26:51

Optimize a model with 1359 rows, 601 columns and 3823 nonzeros
Coefficient statistics:
  Matrix range    [6e-08, 1e+03]
  Objective range [1e+00, 1e+00]
  Bounds range    [1e+00, 1e+00]
  RHS range       [6e-06, 1e+03]
Presolve removed 1147 rows and 380 columns
Presolve time: 0.00s
Presolved: 212 rows, 221 columns, 956 nonzeros
Variable types: 221 continuous, 0 integer (0 binary)

Root relaxation: objective 2.081701e+01, 224 iterations, 0.00 seconds

    Nodes    |    Current Node    |     Objective Bounds      |     Work
 Expl Unexpl |  Obj  Depth IntInf | Incumbent    BestBd   Gap | It/Node Time

*    0     0               0      20.8170123   20.81701  0.00%     -    0s

Explored 0 nodes (224 simplex iterations) in 0.02 seconds
Thread count was 8 (of 8 available processors)

Optimal solution found (tolerance 1.00e-04)
Best objective 2.081701232617e+01, best bound 2.081701232617e+01, gap 0.0%

Wrote requested result file 'H1\instance10\\Results10EC_Sol3.lp'

